Problem:    antitrust2
Rows:       9
Columns:    10 (7 integer, 7 binary)
Non-zeros:  35
Status:     INTEGER OPTIMAL
Objective:  z = 5 (MINimum)

   No.   Row name        Activity     Lower bound   Upper bound
------ ------------    ------------- ------------- -------------
     1 FatturatoAF1              993           993             = 
     2 FatturatoAF2                0            -0             = 
     3 z                           5                             
     4 Vincolo_1[1]               10            -0               
     5 Vincolo_1[2]               10            -0               
     6 Vincolo_1[3]               10            -0               
     7 Vincolo_2[1]                0            -0               
     8 Vincolo_2[2]                0            -0               
     9 Vincolo_2[3]                0            -0               

   No. Column name       Activity     Lower bound   Upper bound
------ ------------    ------------- ------------- -------------
     1 x[1]         *              0             0             1 
     2 x[2]         *              1             0             1 
     3 x[3]         *              0             0             1 
     4 x[4]         *              1             0             1 
     5 x[5]         *              0             0             1 
     6 x[6]         *              1             0             1 
     7 x[7]         *              0             0             1 
     8 y                         494             0               
     9 yy                        499             0               
    10 alfa                        5             0               

Integer feasibility conditions:

KKT.PE: max.abs.err = 0.00e+000 on row 0
        max.rel.err = 0.00e+000 on row 0
        High quality

KKT.PB: max.abs.err = 0.00e+000 on row 0
        max.rel.err = 0.00e+000 on row 0
        High quality

End of output
